Traveling Salesman Problem/TSP_generados/Aleatorio1621103587_16.tsp
NAME: Aleatorio1621103587_16.tsp
COMMENT: Randomly generated scenario
TYPE: TSP
DIMENSION: 16
EDGE_WEIGHT_TYPE: ATT
NODE_COORD_SECTION
1 28.79 49.84
2 19.53 29.35
3 47.36 33.21
4 16.94 37.28
5 3.92 39.05
6 42.75 3.68
7 38.0 46.28
8 43.8 16.4
9 27.04 1.29
10 5.77 34.64
11 45.3 38.06
12 22.83 8.85
13 4.72 42.91
14 45.54 1.18
15 4.38 13.66
16 8.08 18.33
