Traveling Salesman Problem/TSP_generados/Aleatorio1621103587_16.opt.tour
NAME: Aleatorio1621103587_16.opt.tour
COMMENT: Optimal solution for Aleatorio1621103587_16 (181.43312889492267)
TYPE: TOUR
DIMENSION: 16
TOUR_SECTION
1 2 4 13 5 10 16 15 12 9 6 14 8 3 11 7
-1
EOF
